GeneratedTests/Random_8/Random_8_5.tsp
NAME: Random_8_5
TYPE: TSP
DIMENSION: 8
EDGE_WEIGHT_TYPE: EUC_2D
NODE_COORD_SECTION
1 2.6697178 6.9691215
2 15.617924 21.40345
3 17.72052 1.9862351
4 15.073263 22.446247
5 18.68649 10.109222
6 12.462848 13.4884205
7 7.4041514 11.907297
8 1.5908532 20.420612
EOF
