GeneratedTests/Random_8/Random_8_5.txt
NAME: Random_8_5
TYPE: TSP
DIMENSION: 8
EDGE_WEIGHT_TYPE: EUC_2D
NODE_COORD_SECTION
1 8.9313755 14.200676
2 14.027204 12.191332
3 22.893578 0.73377085
4 19.869854 10.5593
5 17.937664 15.772353
6 21.28329 4.816764
7 6.799749 11.57551
8 1.3255892 11.296455
EOF
